200
1000
210
209
208
207
207
207
207
206
205
205
204
203
202
201
200
199
198
198
198
197
197
197
197
197
197
195
195
193
193
193
192
192
190
189
189
188
187
187
186
185
185
185
183
181
179
179
178
177
177
176
175
175
175
174
174
174
172
171
170
169
169
168
168
168
167
166
166
166
166
166
164
164
163
162
162
162
161
160
159
159
158
157
156
156
155
155
154
153
153
152
151
151
150
150
149
148
147
147
147
146
145
145
145
144
144
142
142
142
142
141
140
139
138
138
138
135
133
131
131
131
129
129
128
126
125
124
123
122
121
121
120
118
118
117
117
115
115
115
114
114
113
111
111
111
110
110
109
106
106
105
105
104
102
99
99
98
98
96
96
95
94
93
93
93
93
91
89
89
88
88
88
87
86
86
85
85
84
84
83
83
83
83
82
81
80
79
79
79
78
78
76
76
76
76
76
76
75
74
74
72
